36789
1 1 0 0 0 0 0 0 0 0 1 1 0 1 1 0 0 0 0 0 1 1 0 0 1 1 1 0 0 0 
11 14 21 24 21 11 21 0 24 0 26 14 13 1 11 11 1 20 24 0 11 21 1 24 10 11 24 14 26 21 26 26 26 21 24 11 20 20 24 21 25 20 11 26 20 26 13 21 14 14 24 24 24 21 20 11 11 26 11 25 26 0 25 20 13 11 0 14 11 25 25 11 26 20 10 13 20 10 20 24 10 0 26 25 26 13 26 0 24 25 11 26 25 25 0 13 11 11 0 11 14 21 25 25 26 0 26 24 24 13 14 26 24 11 11 20 11 25 14 20 26 11 0 26 26 21 21 11 26 0 11 24 25 20 1 20 1 13 11 10 11 24 11 25 25 0 24 21 24 25 24 0 10 0 20 25 21 21 13 13 13 0 10 24 10 24 1 26 1 21 1 20 14 14 26 21 0 10 26 10 21 21 21 11 25 20 25 10 0 21 21 21 26 14 25 25 25 21 10 14 
